Route #1: 12 40 17 51 33 6
Route #2: 1 43 42 64 41 56 23
Route #3: 16 63 49 24 18 55 25 50 3
Route #4: 44 32 9 31 39
Route #5: 58 10 38 11 53
Route #6: 14 59 19 54 13 57 15
Route #7: 5 37 20 60 36 47 21
Route #8: 2 62 22 61 28 30
Route #9: 52 27 45 29 48 4
Route #10: 34 46 8 35 7 26
Cost 835